Set parameter Username
Academic license - for non-commercial use only - expires 2024-10-29
Set parameter LazyConstraints to value 1
Set parameter TimeLimit to value 600
Gurobi Optimizer version 10.0.0 build v10.0.0rc2 (linux64)

CPU model: AMD FX(tm)-4300 Quad-Core Processor, instruction set [SSE2|AVX]
Thread count: 2 physical cores, 4 logical processors, using up to 4 threads

Optimize a model with 409 rows, 100 columns and 431 nonzeros
Model fingerprint: 0x428addc5
Variable types: 0 continuous, 100 integer (100 binary)
Coefficient statistics:
  Matrix range     [1e+00, 1e+00]
  Objective range  [1e+00, 1e+01]
  Bounds range     [1e+00, 1e+00]
  RHS range        [1e+00, 1e+00]
Presolve removed 400 rows and 0 columns
Presolve time: 0.00s
Presolved: 9 rows, 100 columns, 31 nonzeros
Variable types: 0 continuous, 100 integer (100 binary)

Root relaxation: objective 3.000000e+01, 8 iterations, 0.00 seconds (0.00 work units)

    Nodes    |    Current Node    |     Objective Bounds      |     Work
 Expl Unexpl |  Obj  Depth IntInf | Incumbent    BestBd   Gap | It/Node Time

     0     0   30.00000    0    -          -   30.00000      -     -    0s
     0     0   30.00000    0    -          -   30.00000      -     -    0s
     0     0   32.00000    0    -          -   32.00000      -     -    0s
     0     0   32.00000    0    -          -   32.00000      -     -    0s
     0     0   33.00000    0    -          -   33.00000      -     -    0s
     0     0   34.00000    0    -          -   34.00000      -     -    0s
     0     0   34.00000    0    -          -   34.00000      -     -    0s
     0     0   35.00000    0    -          -   35.00000      -     -    0s
     0     0   36.00000    0    -          -   36.00000      -     -    0s
     0     0   36.00000    0    -          -   36.00000      -     -    0s
     0     0   36.00000    0    6          -   36.00000      -     -    0s
H    0     0                     119.0000000   47.66667  59.9%     -    0s
     0     0   47.66667    0   10  119.00000   47.66667  59.9%     -    0s
     0     0   50.00000    0    -  119.00000   50.00000  58.0%     -    0s
     0     0   50.00000    0    -  119.00000   50.00000  58.0%     -    0s
     0     0   51.00000    0   12  119.00000   51.00000  57.1%     -    0s
H    0     0                      92.0000000   52.25000  43.2%     -    0s
     0     0   52.25000    0   11   92.00000   52.25000  43.2%     -    0s
H    0     0                      80.0000000   53.00000  33.7%     -    0s
     0     0   53.00000    0    7   80.00000   53.00000  33.7%     -    0s
     0     0   54.18750    0   12   80.00000   54.18750  32.3%     -    0s
H    0     2                      70.0000000   54.18750  22.6%     -    1s
     0     2   54.54167    0   18   70.00000   54.54167  22.1%     -    1s
H    2     4                      63.0000000   55.75000  11.5%   8.0    1s
H   14    14                      60.0000000   56.25000  6.25%  11.8    1s
H   29    14                      59.0000000   56.50000  4.24%   9.3    1s

Cutting planes:
  User: 38
  MIR: 5
  Lazy constraints: 91

Explored 61 nodes (562 simplex iterations) in 1.74 seconds (0.05 work units)
Thread count was 4 (of 4 available processors)

Solution count 7: 59 60 63 ... 119

Optimal solution found (tolerance 1.00e-04)
Best objective 5.900000000000e+01, best bound 5.900000000000e+01, gap 0.0000%

User-callback calls 534, time in user-callback 1.59 sec
